(set-logic QF_UFLIA)
(set-info :author pomrehn@informatik.uni-freiburg.de)
(set-info :category "crafted")
(set-info :status sat)
(set-info :simplyfied A)
(set-info :source "{ One conjunct is already true and therefore non-constraining.}")
(set-option :strong-context-simplifier true)
(declare-fun A () Bool)
(simplify (and A true))
(exit)